 SYSTEM =  GRPH                            
 Electronic Relaxation 1
  ISTART  = 0
  ICHARG  = 2
  ISPIN   = 2
  LWAVE   = .FALSE.
  LCHARG  = .FALSE.
# NELMIN  = 8
  PREC    = Accurate
# NBANDS  = 60
  ENCUT   = 500
# ENAUG   = 2275
  LREAL   = A
  EDIFF   =  1E-6
  EDIFFG  = -0.01
  NSW     = 1500
  IBRION  =  2
  ISIF    =  2
  IVDW = 11

# magnetism
#  MAGMOM = 24*0 36*0 12*0 1*0.6
# LORBMOM = .TRUE.
  LORBIT = 10

# parallization
#LPLANE   = .TRUE.
NCORE    = 4
#NSIM     = 8

LASPH = .TRUE.


# VDW_S6 = 1.0
# VDW_SR = 1.217
# VDW_S8 = 0.722
# LVDW= .TRUE.
# VDW_C6 =  1.75  
#  VDW_R0 =  1.452

# POTIM   = 0.3
# PSTRESS = -22.2
   DOS related values
   ISMEAR = 0;
   SIGMA  = 0.05  
#  NGX =64 NGY = 64  NGZ = 98 
#  NGXF = 128 NGYF =128 NGZF = 196
