 SYSTEM =  GRPH                            
 Electronic Relaxation 1
  ISTART  = 1
  ICHARG  = 2
#  ISPIN   = 2
  LWAVE   = .FALSE.
  LCHARG  = .FALSE.
  ADDGRID= .TRUE.        (Increase grid, helps GGA convergence)
# NELMIN  = 8
  PREC    = Accurate
# NBANDS  = 60
  ENCUT   = 500
# ENAUG   = 2275
  LREAL   = .FALSE.
  EDIFF   =  1E-6
  EDIFFG  = -0.01
  NSW     = 1500
  IBRION  =  2
  ISIF    =  2
  IVDW = 11

# magnetism
#  MAGMOM = 24*0 36*0 12*0 1*0.6
# LORBMOM = .TRUE.
  LORBIT = 10

# parallization
#LPLANE   = .TRUE.
NCORE    = 4
#NSIM     = 8

LASPH = .TRUE.

# VDW_S6 = 1.0
# VDW_SR = 1.217
# VDW_S8 = 0.722
# LVDW= .TRUE.
# VDW_C6 =  1.75  
#  VDW_R0 =  1.452

# Frequency calculations
 NSW    =  1            (number of ionic steps. Make it odd.)
 ISMEAR =  0            (gaussian smearing method)
 SIGMA  =  0.05         (please check the width of the smearing)
 IBRION =  5            (frequence calculation)
 POTIM  =  0.02         (displacement step)
 NFREE  =  2            (displacement freedom)
